language Essence 1.3

letting blksize_delta be
        function(1 --> 9, 2 --> 8, 3 --> 8, 4 --> 8, 5 --> 9, 6 --> 8, 7 --> 10, 8 --> 10, 9 --> 10, 10 --> 9, 11 --> 8,
                 12 --> 8, 13 --> 8, 14 --> 8, 15 --> 8, 16 --> 9)
letting maxcars be
        function(1 --> 10, 2 --> 10, 3 --> 10, 4 --> 10, 5 --> 10, 6 --> 10, 7 --> 10, 8 --> 10, 9 --> 10, 10 --> 10,
                 11 --> 10, 12 --> 10, 13 --> 10, 14 --> 10, 15 --> 10, 16 --> 10)
letting n_cars be 221
letting n_classes be 28
letting n_options be 16
letting quantity be
        function(1 --> 7, 2 --> 7, 3 --> 7, 4 --> 7, 5 --> 32, 6 --> 7, 7 --> 7, 8 --> 7, 9 --> 7, 10 --> 7, 11 --> 7,
                 12 --> 7, 13 --> 7, 14 --> 7, 15 --> 7, 16 --> 7, 17 --> 7, 18 --> 7, 19 --> 7, 20 --> 7, 21 --> 7,
                 22 --> 7, 23 --> 7, 24 --> 7, 25 --> 7, 26 --> 7, 27 --> 7, 28 --> 7)
letting usage be
        relation((1, 4), (1, 12), (1, 15), (1, 16), (2, 2), (2, 3), (2, 5), (2, 15), (3, 1), (3, 2), (3, 5), (3, 11),
                 (3, 14), (4, 5), (4, 9), (4, 10), (4, 14), (5, 3), (5, 8), (5, 10), (5, 15), (6, 1), (6, 2), (6, 3),
                 (6, 9), (6, 15), (7, 1), (7, 4), (7, 7), (7, 11), (8, 6), (8, 9), (8, 15), (9, 8), (9, 12), (10, 5),
                 (10, 10), (10, 12), (10, 14), (10, 15), (11, 7), (11, 9), (11, 10), (12, 2), (12, 8), (12, 9),
                 (12, 15), (13, 3), (13, 4), (13, 7), (13, 10), (13, 12), (13, 14), (13, 15), (14, 2), (14, 3),
                 (14, 15), (15, 1), (15, 2), (15, 3), (15, 4), (16, 1), (16, 3), (16, 5), (16, 6), (16, 7), (16, 15),
                 (17, 1), (17, 6), (17, 8), (18, 1), (18, 2), (18, 8), (18, 9), (18, 15), (18, 16), (19, 3), (19, 6),
                 (19, 10), (19, 11), (19, 15), (19, 16), (20, 3), (20, 8), (20, 10), (20, 12), (20, 13), (21, 4),
                 (21, 7), (21, 10), (21, 13), (22, 16), (23, 5), (23, 7), (23, 8), (23, 16), (24, 14), (25, 1), (25, 5),
                 (25, 7), (25, 8), (25, 12), (25, 13), (25, 14), (25, 16), (26, 1), (26, 5), (26, 6), (26, 8), (26, 9),
                 (27, 2), (27, 5), (27, 11), (27, 13), (27, 14), (27, 15), (28, 1), (28, 10), (28, 11))
$ Visualisation for usage
$  1  4
$  1 12
$  1 15
$  1 16
$  2  2
$  2  3
$  2  5
$  2 15
$  3  1
$  3  2
$  3  5
$  3 11
$  3 14
$  4  5
$  4  9
$  4 10
$  4 14
$  5  3
$  5  8
$  5 10
$  5 15
$  6  1
$  6  2
$  6  3
$  6  9
$  6 15
$  7  1
$  7  4
$  7  7
$  7 11
$  8  6
$  8  9
$  8 15
$  9  8
$  9 12
$ 10  5
$ 10 10
$ 10 12
$ 10 14
$ 10 15
$ 11  7
$ 11  9
$ 11 10
$ 12  2
$ 12  8
$ 12  9
$ 12 15
$ 13  3
$ 13  4
$ 13  7
$ 13 10
$ 13 12
$ 13 14
$ 13 15
$ 14  2
$ 14  3
$ 14 15
$ 15  1
$ 15  2
$ 15  3
$ 15  4
$ 16  1
$ 16  3
$ 16  5
$ 16  6
$ 16  7
$ 16 15
$ 17  1
$ 17  6
$ 17  8
$ 18  1
$ 18  2
$ 18  8
$ 18  9
$ 18 15
$ 18 16
$ 19  3
$ 19  6
$ 19 10
$ 19 11
$ 19 15
$ 19 16
$ 20  3
$ 20  8
$ 20 10
$ 20 12
$ 20 13
$ 21  4
$ 21  7
$ 21 10
$ 21 13
$ 22 16
$ 23  5
$ 23  7
$ 23  8
$ 23 16
$ 24 14
$ 25  1
$ 25  5
$ 25  7
$ 25  8
$ 25 12
$ 25 13
$ 25 14
$ 25 16
$ 26  1
$ 26  5
$ 26  6
$ 26  8
$ 26  9
$ 27  2
$ 27  5
$ 27 11
$ 27 13
$ 27 14
$ 27 15
$ 28  1
$ 28 10
$ 28 11

